p tw 35 37
1 2
2 13
3 4
4 5
4 9
5 6
6 7
7 8
8 11
9 10
10 11
11 12
12 14
13 24
14 15
15 16
15 19
16 17
17 18
18 22
19 20
20 21
21 22
22 23
23 25
24 30
25 26
26 27
26 24
27 28
28 29
30 31
31 32
32 33
33 34
34 35
35 3
